Problem:    percorso
Rows:       19
Columns:    256 (256 integer, 256 binary)
Non-zeros:  320
Status:     INTEGER OPTIMAL
Objective:  rischioTotale = 4 (MINimum)

   No.   Row name        Activity     Lower bound   Upper bound
------ ------------    ------------- ------------- -------------
     1 Cammino[1]                  0            -0             = 
     2 Cammino[2]                  0            -0             = 
     3 Cammino[3]                  0            -0             = 
     4 Cammino[4]                  0            -0             = 
     5 Cammino[5]                  0            -0             = 
     6 Cammino[6]                  0            -0             = 
     7 Cammino[7]                  0            -0             = 
     8 Cammino[8]                  0            -0             = 
     9 Cammino[9]                  0            -0             = 
    10 Cammino[a]                  0            -0             = 
    11 Cammino[b]                  0            -0             = 
    12 Cammino[c]                  0            -0             = 
    13 Cammino[d]                  0            -0             = 
    14 Cammino[e]                  0            -0             = 
    15 Uscente0                    1             1             = 
    16 Uscente1                    0            -0             = 
    17 Uscente2                    1             1             = 
    18 Uscente3                    0            -0             = 
    19 rischioTotale
                                   4                             

   No. Column name       Activity     Lower bound   Upper bound
------ ------------    ------------- ------------- -------------
     1 x[0,1]       *              0             0             1 
     2 x[1,1]       *              0             0             1 
     3 x[2,1]       *              0             0             1 
     4 x[3,1]       *              0             0             1 
     5 x[4,1]       *              0             0             1 
     6 x[5,1]       *              0             0             1 
     7 x[6,1]       *              0             0             1 
     8 x[7,1]       *              0             0             1 
     9 x[8,1]       *              0             0             1 
    10 x[9,1]       *              0             0             1 
    11 x[a,1]       *              0             0             1 
    12 x[b,1]       *              0             0             1 
    13 x[c,1]       *              0             0             1 
    14 x[d,1]       *              0             0             1 
    15 x[e,1]       *              0             0             1 
    16 x[f,1]       *              0             0             1 
    17 x[0,2]       *              0             0             1 
    18 x[1,2]       *              0             0             1 
    19 x[2,2]       *              0             0             1 
    20 x[3,2]       *              0             0             1 
    21 x[4,2]       *              0             0             1 
    22 x[5,2]       *              0             0             1 
    23 x[6,2]       *              0             0             1 
    24 x[7,2]       *              0             0             1 
    25 x[8,2]       *              0             0             1 
    26 x[9,2]       *              0             0             1 
    27 x[a,2]       *              0             0             1 
    28 x[b,2]       *              0             0             1 
    29 x[c,2]       *              0             0             1 
    30 x[d,2]       *              0             0             1 
    31 x[e,2]       *              0             0             1 
    32 x[f,2]       *              0             0             1 
    33 x[0,3]       *              1             0             1 
    34 x[1,3]       *              0             0             1 
    35 x[2,3]       *              0             0             1 
    36 x[3,3]       *              0             0             1 
    37 x[4,3]       *              0             0             1 
    38 x[5,3]       *              0             0             1 
    39 x[6,3]       *              0             0             1 
    40 x[7,3]       *              0             0             1 
    41 x[8,3]       *              0             0             1 
    42 x[9,3]       *              0             0             1 
    43 x[a,3]       *              0             0             1 
    44 x[b,3]       *              0             0             1 
    45 x[c,3]       *              0             0             1 
    46 x[d,3]       *              0             0             1 
    47 x[e,3]       *              0             0             1 
    48 x[f,3]       *              0             0             1 
    49 x[0,4]       *              0             0             1 
    50 x[1,4]       *              0             0             1 
    51 x[2,4]       *              0             0             1 
    52 x[3,4]       *              0             0             1 
    53 x[4,4]       *              0             0             1 
    54 x[5,4]       *              0             0             1 
    55 x[6,4]       *              0             0             1 
    56 x[7,4]       *              0             0             1 
    57 x[8,4]       *              0             0             1 
    58 x[9,4]       *              0             0             1 
    59 x[a,4]       *              0             0             1 
    60 x[b,4]       *              0             0             1 
    61 x[c,4]       *              0             0             1 
    62 x[d,4]       *              0             0             1 
    63 x[e,4]       *              0             0             1 
    64 x[f,4]       *              0             0             1 
    65 x[0,5]       *              0             0             1 
    66 x[1,5]       *              0             0             1 
    67 x[2,5]       *              0             0             1 
    68 x[3,5]       *              0             0             1 
    69 x[4,5]       *              0             0             1 
    70 x[5,5]       *              0             0             1 
    71 x[6,5]       *              0             0             1 
    72 x[7,5]       *              0             0             1 
    73 x[8,5]       *              0             0             1 
    74 x[9,5]       *              0             0             1 
    75 x[a,5]       *              0             0             1 
    76 x[b,5]       *              0             0             1 
    77 x[c,5]       *              0             0             1 
    78 x[d,5]       *              0             0             1 
    79 x[e,5]       *              0             0             1 
    80 x[f,5]       *              0             0             1 
    81 x[0,6]       *              0             0             1 
    82 x[1,6]       *              0             0             1 
    83 x[2,6]       *              0             0             1 
    84 x[3,6]       *              0             0             1 
    85 x[4,6]       *              0             0             1 
    86 x[5,6]       *              0             0             1 
    87 x[6,6]       *              0             0             1 
    88 x[7,6]       *              0             0             1 
    89 x[8,6]       *              0             0             1 
    90 x[9,6]       *              0             0             1 
    91 x[a,6]       *              0             0             1 
    92 x[b,6]       *              0             0             1 
    93 x[c,6]       *              0             0             1 
    94 x[d,6]       *              0             0             1 
    95 x[e,6]       *              0             0             1 
    96 x[f,6]       *              0             0             1 
    97 x[0,7]       *              0             0             1 
    98 x[1,7]       *              0             0             1 
    99 x[2,7]       *              0             0             1 
   100 x[3,7]       *              0             0             1 
   101 x[4,7]       *              0             0             1 
   102 x[5,7]       *              0             0             1 
   103 x[6,7]       *              0             0             1 
   104 x[7,7]       *              0             0             1 
   105 x[8,7]       *              0             0             1 
   106 x[9,7]       *              0             0             1 
   107 x[a,7]       *              0             0             1 
   108 x[b,7]       *              0             0             1 
   109 x[c,7]       *              0             0             1 
   110 x[d,7]       *              0             0             1 
   111 x[e,7]       *              0             0             1 
   112 x[f,7]       *              0             0             1 
   113 x[0,8]       *              0             0             1 
   114 x[1,8]       *              0             0             1 
   115 x[2,8]       *              0             0             1 
   116 x[3,8]       *              0             0             1 
   117 x[4,8]       *              0             0             1 
   118 x[5,8]       *              0             0             1 
   119 x[6,8]       *              0             0             1 
   120 x[7,8]       *              0             0             1 
   121 x[8,8]       *              0             0             1 
   122 x[9,8]       *              0             0             1 
   123 x[a,8]       *              0             0             1 
   124 x[b,8]       *              0             0             1 
   125 x[c,8]       *              0             0             1 
   126 x[d,8]       *              0             0             1 
   127 x[e,8]       *              0             0             1 
   128 x[f,8]       *              0             0             1 
   129 x[0,9]       *              0             0             1 
   130 x[1,9]       *              0             0             1 
   131 x[2,9]       *              0             0             1 
   132 x[3,9]       *              0             0             1 
   133 x[4,9]       *              0             0             1 
   134 x[5,9]       *              0             0             1 
   135 x[6,9]       *              0             0             1 
   136 x[7,9]       *              0             0             1 
   137 x[8,9]       *              0             0             1 
   138 x[9,9]       *              0             0             1 
   139 x[a,9]       *              0             0             1 
   140 x[b,9]       *              0             0             1 
   141 x[c,9]       *              0             0             1 
   142 x[d,9]       *              0             0             1 
   143 x[e,9]       *              0             0             1 
   144 x[f,9]       *              0             0             1 
   145 x[0,a]       *              0             0             1 
   146 x[1,a]       *              0             0             1 
   147 x[2,a]       *              0             0             1 
   148 x[3,a]       *              0             0             1 
   149 x[4,a]       *              0             0             1 
   150 x[5,a]       *              0             0             1 
   151 x[6,a]       *              0             0             1 
   152 x[7,a]       *              0             0             1 
   153 x[8,a]       *              0             0             1 
   154 x[9,a]       *              0             0             1 
   155 x[a,a]       *              0             0             1 
   156 x[b,a]       *              0             0             1 
   157 x[c,a]       *              0             0             1 
   158 x[d,a]       *              0             0             1 
   159 x[e,a]       *              0             0             1 
   160 x[f,a]       *              0             0             1 
   161 x[0,b]       *              0             0             1 
   162 x[1,b]       *              0             0             1 
   163 x[2,b]       *              0             0             1 
   164 x[3,b]       *              0             0             1 
   165 x[4,b]       *              0             0             1 
   166 x[5,b]       *              0             0             1 
   167 x[6,b]       *              0             0             1 
   168 x[7,b]       *              0             0             1 
   169 x[8,b]       *              0             0             1 
   170 x[9,b]       *              0             0             1 
   171 x[a,b]       *              0             0             1 
   172 x[b,b]       *              0             0             1 
   173 x[c,b]       *              0             0             1 
   174 x[d,b]       *              0             0             1 
   175 x[e,b]       *              0             0             1 
   176 x[f,b]       *              0             0             1 
   177 x[0,c]       *              0             0             1 
   178 x[1,c]       *              0             0             1 
   179 x[2,c]       *              0             0             1 
   180 x[3,c]       *              0             0             1 
   181 x[4,c]       *              0             0             1 
   182 x[5,c]       *              0             0             1 
   183 x[6,c]       *              0             0             1 
   184 x[7,c]       *              0             0             1 
   185 x[8,c]       *              0             0             1 
   186 x[9,c]       *              0             0             1 
   187 x[a,c]       *              0             0             1 
   188 x[b,c]       *              0             0             1 
   189 x[c,c]       *              0             0             1 
   190 x[d,c]       *              0             0             1 
   191 x[e,c]       *              0             0             1 
   192 x[f,c]       *              0             0             1 
   193 x[0,d]       *              0             0             1 
   194 x[1,d]       *              0             0             1 
   195 x[2,d]       *              0             0             1 
   196 x[3,d]       *              0             0             1 
   197 x[4,d]       *              0             0             1 
   198 x[5,d]       *              0             0             1 
   199 x[6,d]       *              0             0             1 
   200 x[7,d]       *              0             0             1 
   201 x[8,d]       *              0             0             1 
   202 x[9,d]       *              0             0             1 
   203 x[a,d]       *              0             0             1 
   204 x[b,d]       *              0             0             1 
   205 x[c,d]       *              0             0             1 
   206 x[d,d]       *              0             0             1 
   207 x[e,d]       *              0             0             1 
   208 x[f,d]       *              0             0             1 
   209 x[0,e]       *              0             0             1 
   210 x[1,e]       *              0             0             1 
   211 x[2,e]       *              0             0             1 
   212 x[3,e]       *              0             0             1 
   213 x[4,e]       *              0             0             1 
   214 x[5,e]       *              0             0             1 
   215 x[6,e]       *              0             0             1 
   216 x[7,e]       *              0             0             1 
   217 x[8,e]       *              0             0             1 
   218 x[9,e]       *              0             0             1 
   219 x[a,e]       *              0             0             1 
   220 x[b,e]       *              0             0             1 
   221 x[c,e]       *              0             0             1 
   222 x[d,e]       *              0             0             1 
   223 x[e,e]       *              0             0             1 
   224 x[f,e]       *              0             0             1 
   225 x[0,0]       *              0             0             1 
   226 x[0,f]       *              0             0             1 
   227 x[f,0]       *              0             0             1 
   228 x[f,f]       *              0             0             1 
   229 x[1,f]       *              0             0             1 
   230 x[2,f]       *              0             0             1 
   231 x[3,f]       *              0             0             1 
   232 x[4,f]       *              0             0             1 
   233 x[5,f]       *              0             0             1 
   234 x[6,f]       *              0             0             1 
   235 x[7,f]       *              0             0             1 
   236 x[8,f]       *              0             0             1 
   237 x[9,f]       *              0             0             1 
   238 x[a,f]       *              0             0             1 
   239 x[b,f]       *              0             0             1 
   240 x[c,f]       *              0             0             1 
   241 x[d,f]       *              1             0             1 
   242 x[e,f]       *              0             0             1 
   243 x[1,0]       *              0             0             1 
   244 x[2,0]       *              0             0             1 
   245 x[3,0]       *              0             0             1 
   246 x[4,0]       *              0             0             1 
   247 x[5,0]       *              0             0             1 
   248 x[6,0]       *              0             0             1 
   249 x[7,0]       *              0             0             1 
   250 x[8,0]       *              0             0             1 
   251 x[9,0]       *              0             0             1 
   252 x[a,0]       *              0             0             1 
   253 x[b,0]       *              0             0             1 
   254 x[c,0]       *              0             0             1 
   255 x[d,0]       *              0             0             1 
   256 x[e,0]       *              0             0             1 

Integer feasibility conditions:

KKT.PE: max.abs.err = 0.00e+00 on row 0
        max.rel.err = 0.00e+00 on row 0
        High quality

KKT.PB: max.abs.err = 0.00e+00 on row 0
        max.rel.err = 0.00e+00 on row 0
        High quality

End of output
